Optimal - objective value 123.07000000
      0 C0000000           50000                      -0
      1 C0000001               9                      -0
      2 C0000002               1                      -0
      3 C0000003               1                      -0
      4 C0000004               2                      -0
      5 C0000005               2                      -0
      6 C0000006               4                      -0
      7 C0000007               4                      -0
      8 C0000008               1                      -0
      9 C0000009               1                      -0
     10 C0000010               1                      -0
     11 C0000011               1                      -0
     12 C0000012               0                      -0
     13 C0000013               0                      -0
     14 C0000014               0                      -0
     15 C0000015               0                      -0
     16 C0000016               0                      -0
     17 C0000017               0                      -0
     18 C0000018               0                      -0
     19 C0000019               0                      -0
     20 C0000020               0                      -0
     21 C0000021               0                      -0
     22 C0000022               0                      -0
     23 C0000023               0                      -0
     24 C0000024               0                      -0
     25 C0000025               0                      -0
     26 C0000026               0                      -0
     27 C0000027               0                      -0
     28 C0000028               0                      -0
     29 C0000029               0                      -0
     30 C0000030               0                      -0
     31 C0000031               0                      -0
     32 C0000032               0                      -0
     33 C0000033               0                      -0
     34 C0000034               0                      -0
     35 C0000035               0                      -0
     36 C0000036               0                      -0
     37 C0000037               0                      -0
     38 C0000038               0                      -0
     39 C0000039               0                      -0
     40 C0000040               0                      -0
     41 C0000041               0                      -0
     42 C0000042               0                      -0
     43 C0000043               0                      -0
     44 C0000044               0                      -0
     45 C0000045               0                      -0
     46 C0000046               0                      -0
     47 C0000047               0                      -0
     48 C0000048               0                      -0
     49 C0000049               0                      -0
     50 C0000050               0                      -0
     51 C0000051               0                      -0
     52 C0000052               0                      -0
     53 C0000053               0                      -0
     54 C0000054               0                      -0
     55 C0000055               0                      -0
     56 C0000056               0                      -0
     57 C0000057               0                      -0
     58 C0000058               0                      -0
     59 C0000059               0                      -0
     60 C0000060               0                      -0
     61 C0000061               0                      -0
     62 C0000062               0                      -0
     63 C0000063               0                      -0
     64 C0000064               0                      -0
     65 C0000065               0                      -0
     66 C0000066               0                      -0
     67 C0000067               0                      -0
     68 C0000068               0                      -0
     69 C0000069               0                      -0
     70 C0000070               0                      -0
     71 C0000071               0                      -0
     72 C0000072               0                      -0
     73 C0000073               0                      -0
     74 C0000074               0                      -0
     75 C0000075               0                      -0
     76 C0000076               0                      -0
     77 C0000077               0                      -0
     78 C0000078               0                      -0
     79 C0000079               0                      -0
     80 C0000080               0                      -0
     81 C0000081               0                      -0
     82 C0000082               0                      -0
     83 C0000083               0                      -0
     84 C0000084               0                      -0
     85 C0000085               0                      -0
     86 C0000086               0                      -0
     87 C0000087               0                      -0
     88 C0000088               0                      -0
     89 C0000089               0                      -0
     90 C0000090               0                      -0
     91 C0000091               0                      -0
      0 X0000000               0                   11.92
      1 X0000001               0                       0
      2 X0000002               0                     2.9
      3 X0000003               0                       0
      4 X0000004               0                       0
      5 X0000005               0                    3.81
      6 X0000006               0                       0
      7 X0000007               0                       0
      8 X0000008               0                    9.11
      9 X0000009               0                       0
     10 X0000010               0                    7.53
     11 X0000011               0                       0
     12 X0000012               0                   10.56
     13 X0000013               0                       0
     14 X0000014               0                       0
     15 X0000015               0                    20.6
     16 X0000016               0                       0
     17 X0000017               0                   21.42
     18 X0000018               0                    8.09
     19 X0000019               0                       0
     20 X0000020               0                       0
     21 X0000021               0                       0
     22 X0000022               0                    8.19
     23 X0000023               0                       0
     24 X0000024               0                       0
     25 X0000025               0                    9.17
     26 X0000026               0                   11.17
     27 X0000027               0                       0
     28 X0000028               0                   11.72
     29 X0000029               0                       0
     30 X0000030               0                       0
     31 X0000031               0                   24.16
     32 X0000032               0                       0
     33 X0000033               0                   15.17
     34 X0000034               0                       0
     35 X0000035               0                       0
     36 X0000036               0                   12.57
     37 X0000037               0                    2.21
     38 X0000038               0                    2.48
     39 X0000039               0                       0
     40 X0000040               0                    5.81
     41 X0000041               0                   16.28
     42 X0000042               0                       0
     43 X0000043               0                       0
     44 X0000044               0                       0
     45 X0000045               0                   11.68
     46 X0000046               0                   14.39
     47 X0000047               0                       0
     48 X0000048               0                       0
     49 X0000049               0                       0
     50 X0000050               0                   16.13
     51 X0000051               0                    9.55
     52 X0000052               0                       0
     53 X0000053               0                       0
     54 X0000054               0                       0
     55 X0000055               0                   19.13
     56 X0000056               0                   10.02
     57 X0000057               0                    7.29
     58 X0000058               0                       0
     59 X0000059               0                       0
     60 X0000060               0                       0
     61 X0000061               0                    7.99
     62 X0000062               0                       0
     63 X0000063               0                    5.73
     64 X0000064               0                    4.49
     65 X0000065               0                    8.04
     66 X0000066               0                       0
     67 X0000067               0                       0
     68 X0000068               0                       0
     69 X0000069               0                       0
     70 X0000070               0                    5.25
     71 X0000071               0                   21.78
     72 X0000072               0                       0
     73 X0000073               0                    5.33
     74 X0000074               0                       0
     75 X0000075               0                       0
     76 X0000076               0                       0
     77 X0000077               0                   12.28
     78 X0000078               0                    8.23
     79 X0000079               0                    5.45
     80 X0000080               1                   10.05
     81 X0000081               0                   14.36
     82 X0000082               0                    8.43
     83 X0000083               0                   14.77
     84 X0000084               0                    5.07
     85 X0000085               0                    9.53
     86 X0000086               0                    4.82
     87 X0000087               0                   16.84
     88 X0000088               1                   10.45
     89 X0000089               0                       0
     90 X0000090               0                   16.63
     91 X0000091               0                       0
     92 X0000092               0                   20.63
     93 X0000093               0                       0
     94 X0000094               0                       0
     95 X0000095               0                   10.55
     96 X0000096               0                       0
     97 X0000097               0                    10.6
     98 X0000098               0                       0
     99 X0000099               0                       0
    100 X0000100               0                       0
    101 X0000101               0                       0
    102 X0000102               0                       0
    103 X0000103               0                     2.9
    104 X0000104               0                    9.26
    105 X0000105               0                    8.36
    106 X0000106               0                       0
    107 X0000107               0                    4.18
    108 X0000108               0                       0
    109 X0000109               0                    6.33
    110 X0000110               0                       0
    111 X0000111               0                       0
    112 X0000112               0                    14.9
    113 X0000113               0                    6.38
    114 X0000114               0                       0
    115 X0000115               0                       0
    116 X0000116               0                       0
    117 X0000117               0                       0
    118 X0000118               0                    7.98
    119 X0000119               0                       0
    120 X0000120               0                   12.62
    121 X0000121               0                    3.58
    122 X0000122               0                   11.79
    123 X0000123               0                   18.92
    124 X0000124               0                   13.81
    125 X0000125               0                   12.47
    126 X0000126               0                       0
    127 X0000127               0                   24.76
    128 X0000128               0                       0
    129 X0000129               0                       0
    130 X0000130               0                    4.18
    131 X0000131               0                       0
    132 X0000132               0                   23.03
    133 X0000133               0                    2.82
    134 X0000134               0                       0
    135 X0000135               0                       0
    136 X0000136               0                       0
    137 X0000137               0                   10.45
    138 X0000138               0                       0
    139 X0000139               0                    6.75
    140 X0000140               0                    2.44
    141 X0000141               0                   11.08
    142 X0000142               0                    7.44
    143 X0000143               0                    4.49
    144 X0000144               0                       0
    145 X0000145               0                       0
    146 X0000146               0                       0
    147 X0000147               0                       0
    148 X0000148               0                       0
    149 X0000149               0                       0
    150 X0000150               0                       0
    151 X0000151               0                       0
    152 X0000152               0                       0
    153 X0000153               0                    8.96
    154 X0000154               1                   19.34
    155 X0000155               0                       0
    156 X0000156               0                       0
    157 X0000157               0                       0
    158 X0000158               0                       0
    159 X0000159               0                       0
    160 X0000160               0                     3.4
    161 X0000161               0                    9.16
    162 X0000162               0                       0
    163 X0000163               0                       0
    164 X0000164               0                       0
    165 X0000165               0                       0
    166 X0000166               0                       0
    167 X0000167               0                   14.06
    168 X0000168               0                       0
    169 X0000169               0                    3.86
    170 X0000170               0                       0
    171 X0000171               0                       0
    172 X0000172               0                       0
    173 X0000173               0                   11.91
    174 X0000174               0                       0
    175 X0000175               0                    8.49
    176 X0000176               0                    11.6
    177 X0000177               0                       0
    178 X0000178               0                   15.49
    179 X0000179               0                   19.96
    180 X0000180               0                       0
    181 X0000181               0                       0
    182 X0000182               0                       0
    183 X0000183               0                       0
    184 X0000184               0                   25.53
    185 X0000185               0                   11.21
    186 X0000186               0                    4.72
    187 X0000187               0                       0
    188 X0000188               0                       0
    189 X0000189               0                    4.46
    190 X0000190               0                       0
    191 X0000191               0                       0
    192 X0000192               0                       0
    193 X0000193               0                    9.71
    194 X0000194               1                   15.22
    195 X0000195               0                    9.83
    196 X0000196               0                       0
    197 X0000197               0                    5.92
    198 X0000198               0                       0
    199 X0000199               0                   10.78
    200 X0000200               0                    9.25
    201 X0000201               0                       0
    202 X0000202               0                       0
    203 X0000203               0                    11.3
    204 X0000204               0                    5.01
    205 X0000205               0                   12.58
    206 X0000206               0                       0
    207 X0000207               0                       0
    208 X0000208               0                    6.52
    209 X0000209               0                       0
    210 X0000210               0                   17.23
    211 X0000211               0                       0
    212 X0000212               0                    5.89
    213 X0000213               0                       0
    214 X0000214               0                    2.97
    215 X0000215               0                   14.86
    216 X0000216               0                       0
    217 X0000217               0                    3.52
    218 X0000218               0                       0
    219 X0000219               0                       0
    220 X0000220               0                       0
    221 X0000221               0                       0
    222 X0000222               0                   11.42
    223 X0000223               0                    6.83
    224 X0000224               0                    4.33
    225 X0000225               0                       0
    226 X0000226               0                   19.02
    227 X0000227               0                   14.07
    228 X0000228               0                       0
    229 X0000229               0                   13.31
    230 X0000230               0                       0
    231 X0000231               0                    4.29
    232 X0000232               0                       0
    233 X0000233               0                       0
    234 X0000234               0                       0
    235 X0000235               1                   14.04
    236 X0000236               0                   14.48
    237 X0000237               0                   19.73
    238 X0000238               0                       0
    239 X0000239               0                   10.29
    240 X0000240               0                       0
    241 X0000241               0                       0
    242 X0000242               0                    2.96
    243 X0000243               0                    5.77
    244 X0000244               0                       0
    245 X0000245               0                   14.22
    246 X0000246               0                    3.48
    247 X0000247               0                       0
    248 X0000248               0                    6.81
    249 X0000249               0                    9.91
    250 X0000250               0                   10.92
    251 X0000251               0                    5.44
    252 X0000252               0                    2.93
    253 X0000253               0                       0
    254 X0000254               0                       0
    255 X0000255               0                       0
    256 X0000256               0                       0
    257 X0000257               0                       0
    258 X0000258               0                   12.88
    259 X0000259               0                    8.22
    260 X0000260               0                       0
    261 X0000261               0                   11.36
    262 X0000262               0                   10.21
    263 X0000263               0                   16.34
    264 X0000264               0                   16.58
    265 X0000265               0                       0
    266 X0000266               0                   12.68
    267 X0000267               0                       0
    268 X0000268               0                   10.28
    269 X0000269               0                       0
    270 X0000270               0                       0
    271 X0000271               0                    7.01
    272 X0000272               0                       0
    273 X0000273               0                       0
    274 X0000274               0                       0
    275 X0000275               0                    5.35
    276 X0000276               0                       0
    277 X0000277               0                       0
    278 X0000278               0                   11.08
    279 X0000279               0                       0
    280 X0000280               0                   10.22
    281 X0000281               0                       0
    282 X0000282               0                       0
    283 X0000283               0                       0
    284 X0000284               0                       0
    285 X0000285               0                    7.73
    286 X0000286               0                       0
    287 X0000287               0                   15.08
    288 X0000288               0                   14.98
    289 X0000289               0                    12.6
    290 X0000290               0                    9.02
    291 X0000291               0                       0
    292 X0000292               0                    7.57
    293 X0000293               0                   14.41
    294 X0000294               0                       0
    295 X0000295               0                       0
    296 X0000296               0                       0
    297 X0000297               0                       0
    298 X0000298               0                    3.47
    299 X0000299               0                    4.77
    300 X0000300               0                       0
    301 X0000301               0                    8.46
    302 X0000302               0                       0
    303 X0000303               0                    7.02
    304 X0000304               0                       0
    305 X0000305               0                       0
    306 X0000306               0                     6.8
    307 X0000307               0                       0
    308 X0000308               0                       0
    309 X0000309               0                       0
    310 X0000310               0                   11.27
    311 X0000311               0                    5.78
    312 X0000312               0                    4.08
    313 X0000313               0                   10.35
    314 X0000314               0                       0
    315 X0000315               0                    9.16
    316 X0000316               0                       0
    317 X0000317               1                   15.95
    318 X0000318               0                       0
    319 X0000319               0                    9.81
    320 X0000320               0                    8.09
    321 X0000321               0                    9.01
    322 X0000322               0                       0
    323 X0000323               0                   22.42
    324 X0000324               0                       0
    325 X0000325               0                       0
    326 X0000326               0                       0
    327 X0000327               0                       0
    328 X0000328               0                   11.65
    329 X0000329               0                    2.48
    330 X0000330               0                       0
    331 X0000331               0                   20.78
    332 X0000332               0                       0
    333 X0000333               0                       0
    334 X0000334               0                    6.13
    335 X0000335               0                       0
    336 X0000336               0                       0
    337 X0000337               0                       0
    338 X0000338               0                       0
    339 X0000339               0                       0
    340 X0000340               0                    5.48
    341 X0000341               0                       0
    342 X0000342               0                    6.89
    343 X0000343               0                    5.94
    344 X0000344               0                       0
    345 X0000345               0                    8.69
    346 X0000346               0                       0
    347 X0000347               0                       0
    348 X0000348               0                       0
    349 X0000349               0                    7.73
    350 X0000350               0                       0
    351 X0000351               0                       0
    352 X0000352               0                       0
    353 X0000353               0                       0
    354 X0000354               0                    7.56
    355 X0000355               0                    4.22
    356 X0000356               0                    7.67
    357 X0000357               0                   13.06
    358 X0000358               0                       0
    359 X0000359               0                       0
    360 X0000360               0                    5.44
    361 X0000361               0                    4.16
    362 X0000362               0                       0
    363 X0000363               0                    6.72
    364 X0000364               0                    3.25
    365 X0000365               0                       0
    366 X0000366               0                       0
    367 X0000367               0                       0
    368 X0000368               0                   16.65
    369 X0000369               0                       0
    370 X0000370               0                   21.01
    371 X0000371               0                    6.04
    372 X0000372               0                       0
    373 X0000373               1                   11.95
    374 X0000374               0                       0
    375 X0000375               0                       0
    376 X0000376               0                       0
    377 X0000377               0                   16.44
    378 X0000378               0                    5.54
    379 X0000379               0                   17.82
    380 X0000380               0                   14.42
    381 X0000381               0                   20.42
    382 X0000382               0                       0
    383 X0000383               0                       0
    384 X0000384               0                    3.46
    385 X0000385               0                       0
    386 X0000386               0                       0
    387 X0000387               0                       0
    388 X0000388               0                   12.58
    389 X0000389               0                    9.67
    390 X0000390               0                       0
    391 X0000391               0                   11.41
    392 X0000392               0                       0
    393 X0000393               0                    4.59
    394 X0000394               0                   18.31
    395 X0000395               0                       0
    396 X0000396               0                       0
    397 X0000397               0                   10.56
    398 X0000398               0                       0
    399 X0000399               0                       0
    400 X0000400               0                       0
    401 X0000401               0                       0
    402 X0000402               0                       0
    403 X0000403               0                       0
    404 X0000404               0                    8.73
    405 X0000405               0                   12.56
    406 X0000406               0                    5.29
    407 X0000407               0                    4.61
    408 X0000408               0                       0
    409 X0000409               0                    3.32
    410 X0000410               0                       0
    411 X0000411               0                   11.23
    412 X0000412               0                       0
    413 X0000413               0                    6.94
    414 X0000414               0                       0
    415 X0000415               0                       0
    416 X0000416               0                       0
    417 X0000417               0                       0
    418 X0000418               0                       0
    419 X0000419               0                       0
    420 X0000420               0                   10.89
    421 X0000421               0                   13.52
    422 X0000422               0                       0
    423 X0000423               0                    6.37
    424 X0000424               0                   12.72
    425 X0000425               0                       0
    426 X0000426               0                   14.47
    427 X0000427               0                       0
    428 X0000428               0                       0
    429 X0000429               0                       0
    430 X0000430               0                    4.52
    431 X0000431               0                   12.55
    432 X0000432               0                       0
    433 X0000433               0                       0
    434 X0000434               0                       0
    435 X0000435               0                    7.89
    436 X0000436               0                       0
    437 X0000437               1                    6.87
    438 X0000438               0                   12.58
    439 X0000439               0                    8.65
    440 X0000440               0                       0
    441 X0000441               0                    9.25
    442 X0000442               0                    5.82
    443 X0000443               0                   18.16
    444 X0000444               0                    9.33
    445 X0000445               0                       0
    446 X0000446               0                       0
    447 X0000447               0                    3.94
    448 X0000448               0                       0
    449 X0000449               0                       0
    450 X0000450               0                   11.42
    451 X0000451               0                       0
    452 X0000452               0                       0
    453 X0000453               0                       0
    454 X0000454               0                       0
    455 X0000455               0                       0
    456 X0000456               0                       0
    457 X0000457               0                       0
    458 X0000458               0                       0
    459 X0000459               0                   15.19
    460 X0000460               0                       0
    461 X0000461               0                       0
    462 X0000462               0                    8.82
    463 X0000463               0                       0
    464 X0000464               0                   16.78
    465 X0000465               0                   23.16
    466 X0000466               0                    6.67
    467 X0000467               0                     1.7
    468 X0000468               0                       0
    469 X0000469               0                       0
    470 X0000470               0                    2.82
    471 X0000471               0                   19.54
    472 X0000472               0                       0
    473 X0000473               0                     6.9
    474 X0000474               0                       0
    475 X0000475               0                       0
    476 X0000476               0                    6.94
    477 X0000477               0                       0
    478 X0000478               0                   10.87
    479 X0000479               0                   14.61
    480 X0000480               0                   12.12
    481 X0000481               0                       0
    482 X0000482               0                   13.24
    483 X0000483               0                    6.39
    484 X0000484               0                    5.38
    485 X0000485               0                    5.66
    486 X0000486               0                    4.33
    487 X0000487               0                       0
    488 X0000488               0                    4.76
    489 X0000489               0                    7.05
    490 X0000490               0                    4.94
    491 X0000491               0                       0
    492 X0000492               0                    7.26
    493 X0000493               0                   16.46
    494 X0000494               0                    4.34
    495 X0000495               0                       0
    496 X0000496               0                       0
    497 X0000497               0                    3.32
    498 X0000498               0                     3.2
    499 X0000499               0                    8.67
    500 X0000500               0                   22.48
    501 X0000501               0                       0
    502 X0000502               0                       0
    503 X0000503               0                       0
    504 X0000504               0                   18.63
    505 X0000505               0                       0
    506 X0000506               0                       0
    507 X0000507               0                   21.39
    508 X0000508               0                       0
    509 X0000509               0                   15.05
    510 X0000510               0                    6.15
    511 X0000511               0                       0
    512 X0000512               0                       0
    513 X0000513               0                       0
    514 X0000514               0                   11.04
    515 X0000515               0                       0
    516 X0000516               0                       0
    517 X0000517               0                    10.8
    518 X0000518               0                       0
    519 X0000519               0                      16
    520 X0000520               0                       0
    521 X0000521               0                   12.61
    522 X0000522               0                       0
    523 X0000523               1                    19.2
    524 X0000524               0                       0
    525 X0000525               0                    2.97
    526 X0000526               0                    5.74
    527 X0000527               0                       0
    528 X0000528               0                       0
    529 X0000529               0                       0
    530 X0000530               0                    8.66
    531 X0000531               0                       0
    532 X0000532               0                       0
    533 X0000533               0                    6.52
    534 X0000534               0                       0
    535 X0000535               0                       0
    536 X0000536               0                    6.48
    537 X0000537               0                       0
    538 X0000538               0                       0
    539 X0000539               0                       0
    540 X0000540               0                   16.67
